NAME: random_70_2
TYPE: TSP
COMMENT: random_70_2
DIMENSION: 70
EDGE_WEIGHT_TYPE: EUC_2D
NODE_COORD_SECTION
1 19 310
2 339 238
3 427 490
4 465 58
5 380 132
6 27 397
7 286 342
8 296 91
9 117 353
10 177 262
11 253 271
12 126 203
13 307 227
14 397 292
15 405 471
16 70 199
17 151 333
18 133 132
19 17 200
20 440 372
21 188 62
22 425 236
23 190 207
24 270 333
25 381 256
26 84 330
27 411 68
28 293 210
29 493 37
30 448 216
31 447 227
32 278 13
33 230 266
34 138 365
35 438 395
36 397 247
37 40 348
38 365 251
39 333 321
40 219 484
41 245 490
42 4 393
43 21 56
44 42 112
45 492 308
46 64 333
47 209 250
48 316 262
49 392 39
50 182 488
51 459 355
52 324 123
53 394 2
54 368 11
55 227 251
56 464 354
57 413 247
58 37 447
59 63 185
60 95 123
61 286 136
62 490 136
63 465 198
64 315 155
65 293 255
66 318 393
67 440 4
68 24 16
69 44 185
70 433 154
